\* Supply-Demand-Problem *\
Minimize
OBJ: 111.194926645 X_adminpds_Adilabad_1121_Adilabad_Paddy
 + 111.194926645 X_adminpds_Adilabad_1212121_Adilabad_Paddy
 + 111.194926645 X_adminpds_Adilabad_34534_Adilabad_Paddy
 + 111.194926645 X_adminpds_Adilabad_666_Adilabad_Paddy
 + 111.194926645 X_adminpds_Adilabad_adminp00ds_Adilabad_Paddy
 + 111.194926645 X_adminpds_Adilabad_adminpds_Adilabad_Paddy
Subject To
_C1: X_1111_Adilabad_1212121_Adilabad_Paddy
 + X_adminpds_Adilabad_1212121_Adilabad_Paddy <= 567
_C10: X_1111_Adilabad_666_Adilabad_Paddy
 + X_adminpds_Adilabad_666_Adilabad_Paddy >= 700
_C11: X_1111_Adilabad_adminpds_Adilabad_Paddy
 + X_adminpds_Adilabad_adminpds_Adilabad_Paddy >= 700
_C12: X_1111_Adilabad_adminp00ds_Adilabad_Paddy
 + X_adminpds_Adilabad_adminp00ds_Adilabad_Paddy >= 700
_C13: X_1111_Adilabad_1121_Adilabad_Paddy
 + X_1111_Adilabad_1212121_Adilabad_Paddy
 + X_1111_Adilabad_34534_Adilabad_Paddy + X_1111_Adilabad_666_Adilabad_Paddy
 + X_1111_Adilabad_adminp00ds_Adilabad_Paddy
 + X_1111_Adilabad_adminpds_Adilabad_Paddy <= 5000
_C14: X_adminpds_Adilabad_1121_Adilabad_Paddy
 + X_adminpds_Adilabad_1212121_Adilabad_Paddy
 + X_adminpds_Adilabad_34534_Adilabad_Paddy
 + X_adminpds_Adilabad_666_Adilabad_Paddy
 + X_adminpds_Adilabad_adminp00ds_Adilabad_Paddy
 + X_adminpds_Adilabad_adminpds_Adilabad_Paddy <= 50
_C15: X_1111_Adilabad_1121_Adilabad_Paddy
 + X_1111_Adilabad_1212121_Adilabad_Paddy
 + X_1111_Adilabad_34534_Adilabad_Paddy + X_1111_Adilabad_666_Adilabad_Paddy
 + X_1111_Adilabad_adminp00ds_Adilabad_Paddy
 + X_1111_Adilabad_adminpds_Adilabad_Paddy >= 5000
_C16: X_adminpds_Adilabad_1121_Adilabad_Paddy
 + X_adminpds_Adilabad_1212121_Adilabad_Paddy
 + X_adminpds_Adilabad_34534_Adilabad_Paddy
 + X_adminpds_Adilabad_666_Adilabad_Paddy
 + X_adminpds_Adilabad_adminp00ds_Adilabad_Paddy
 + X_adminpds_Adilabad_adminpds_Adilabad_Paddy >= 50
_C2: X_1111_Adilabad_34534_Adilabad_Paddy
 + X_adminpds_Adilabad_34534_Adilabad_Paddy <= 567
_C3: X_1111_Adilabad_1121_Adilabad_Paddy
 + X_adminpds_Adilabad_1121_Adilabad_Paddy <= 1700
_C4: X_1111_Adilabad_666_Adilabad_Paddy
 + X_adminpds_Adilabad_666_Adilabad_Paddy <= 1657
_C5: X_1111_Adilabad_adminpds_Adilabad_Paddy
 + X_adminpds_Adilabad_adminpds_Adilabad_Paddy <= 1655
_C6: X_1111_Adilabad_adminp00ds_Adilabad_Paddy
 + X_adminpds_Adilabad_adminp00ds_Adilabad_Paddy <= 1657
_C7: X_1111_Adilabad_1212121_Adilabad_Paddy
 + X_adminpds_Adilabad_1212121_Adilabad_Paddy >= 123
_C8: X_1111_Adilabad_34534_Adilabad_Paddy
 + X_adminpds_Adilabad_34534_Adilabad_Paddy >= 123
_C9: X_1111_Adilabad_1121_Adilabad_Paddy
 + X_adminpds_Adilabad_1121_Adilabad_Paddy >= 770
Bounds
 0 <= X_1111_Adilabad_1121_Adilabad_Paddy
 0 <= X_1111_Adilabad_1212121_Adilabad_Paddy
 0 <= X_1111_Adilabad_34534_Adilabad_Paddy
 0 <= X_1111_Adilabad_666_Adilabad_Paddy
 0 <= X_1111_Adilabad_adminp00ds_Adilabad_Paddy
 0 <= X_1111_Adilabad_adminpds_Adilabad_Paddy
 0 <= X_adminpds_Adilabad_1121_Adilabad_Paddy
 0 <= X_adminpds_Adilabad_1212121_Adilabad_Paddy
 0 <= X_adminpds_Adilabad_34534_Adilabad_Paddy
 0 <= X_adminpds_Adilabad_666_Adilabad_Paddy
 0 <= X_adminpds_Adilabad_adminp00ds_Adilabad_Paddy
 0 <= X_adminpds_Adilabad_adminpds_Adilabad_Paddy
End
